
Gurobi 7.5.2 (linux64) logging started Sat Jun 23 18:08:49 2018

Changed value of parameter LogFile to result/ilp/simNo_9-n_100-m_40-s_4-minVAF_0.05-cov_2000-k_1-fn_0.10-fp_0.0001-na_0.15.ILP.gurobiSolverLog
   Prev: gurobi.log  Default: 
Changed value of parameter TimeLimit to 86400.0
   Prev: 1e+100  Min: 0.0  Max: 1e+100  Default: 1e+100
Optimize a model with 1265601 rows, 330440 columns and 3489120 nonzeros
Variable types: 0 continuous, 330440 integer (330440 binary)
Coefficient statistics:
  Matrix range     [3e-03, 3e+00]
  Objective range  [5e-01, 9e+00]
  Bounds range     [1e+00, 1e+00]
  RHS range        [3e-01, 2e+00]
Found heuristic solution: objective -14481.25494
Presolve removed 337651 rows and 214559 columns (presolve time = 6s) ...
Presolve removed 338225 rows and 214559 columns (presolve time = 10s) ...
Presolve removed 339154 rows and 214559 columns (presolve time = 15s) ...
Presolve removed 339154 rows and 214559 columns (presolve time = 20s) ...
Presolve removed 339154 rows and 214559 columns (presolve time = 25s) ...
Presolve removed 339154 rows and 214559 columns (presolve time = 30s) ...
Presolve removed 339154 rows and 214559 columns (presolve time = 39s) ...
Presolve removed 339154 rows and 214559 columns (presolve time = 41s) ...
Presolve removed 339154 rows and 214559 columns
Presolve time: 40.92s
Presolved: 926447 rows, 115881 columns, 2570505 nonzeros
Variable types: 0 continuous, 115881 integer (115881 binary)
Presolved: 115881 rows, 1042328 columns, 2686386 nonzeros

Presolve removed 115881 rows and 1042328 columns

Root simplex log...

Iteration    Objective       Primal Inf.    Dual Inf.      Time
       0    7.2421327e+00   0.000000e+00   8.989200e+04     51s
   13998   -2.3057676e+02   0.000000e+00   7.705600e+04     55s
   20562   -2.6188727e+02   0.000000e+00   0.000000e+00     58s
   20562   -2.6188727e+02   0.000000e+00   0.000000e+00     60s

Root relaxation: objective -2.618873e+02, 20562 iterations, 15.23 seconds
Total elapsed time = 61.19s
Total elapsed time = 97.61s
Total elapsed time = 109.43s

    Nodes    |    Current Node    |     Objective Bounds      |     Work
 Expl Unexpl |  Obj  Depth IntInf | Incumbent    BestBd   Gap | It/Node Time

     0     0 -261.88727    0  588 -14481.255 -261.88727  98.2%     -  123s
H    0     0                    -302.3312747 -261.88727  13.4%     -  136s
     0     0 -265.16651    0  592 -302.33127 -265.16651  12.3%     -  154s
     0     0 -267.71703    0  609 -302.33127 -267.71703  11.4%     -  188s
     0     0 -267.71703    0  609 -302.33127 -267.71703  11.4%     -  205s
     0     0 -269.53884    0  608 -302.33127 -269.53884  10.8%     -  218s
     0     0 -269.53884    0  599 -302.33127 -269.53884  10.8%     -  235s
     0     0 -270.63192    0  592 -302.33127 -270.63192  10.5%     -  250s
     0     0 -270.63192    0  598 -302.33127 -270.63192  10.5%     -  265s
     0     0 -273.54680    0  618 -302.33127 -273.54680  9.52%     -  280s
     0     0 -273.54680    0  555 -302.33127 -273.54680  9.52%     -  294s
     0     0 -273.91116    0  514 -302.33127 -273.91116  9.40%     -  308s
     0     0 -274.27552    0  572 -302.33127 -274.27552  9.28%     -  328s
     0     0 -274.45770    0  591 -302.33127 -274.45770  9.22%     -  338s
     0     0 -274.45770    0  591 -302.33127 -274.45770  9.22%     -  346s
     0     0 -275.18642    0  633 -302.33127 -275.18642  8.98%     -  359s
     0     0 -275.18642    0  637 -302.33127 -275.18642  8.98%     -  372s
     0     0 -276.82605    0  591 -302.33127 -276.82605  8.44%     -  388s
     0     0 -276.82605    0  601 -302.33127 -276.82605  8.44%     -  401s
     0     0 -279.01221    0  626 -302.33127 -279.01221  7.71%     -  422s
     0     0 -279.01221    0  626 -302.33127 -279.01221  7.71%     -  437s
     0     0 -279.55875    0  609 -302.33127 -279.55875  7.53%     -  451s
     0     0 -279.55875    0  557 -302.33127 -279.55875  7.53%     -  465s
     0     0 -280.65183    0  547 -302.33127 -280.65183  7.17%     -  482s
     0     0 -280.65183    0  556 -302.33127 -280.65183  7.17%     -  495s
     0     0 -281.74491    0  623 -302.33127 -281.74491  6.81%     -  512s
     0     0 -281.74491    0  627 -302.33127 -281.74491  6.81%     -  531s
     0     0 -283.38453    0  609 -302.33127 -283.38453  6.27%     -  552s
     0     0 -283.38453    0  598 -302.33127 -283.38453  6.27%     -  569s
     0     0 -284.11325    0  506 -302.33127 -284.11325  6.03%     -  587s
     0     0 -284.11325    0  497 -302.33127 -284.11325  6.03%     -  603s
     0     0 -284.84197    0  610 -302.33127 -284.84197  5.78%     -  623s
     0     0 -284.84197    0  618 -302.33127 -284.84197  5.78%     -  638s
     0     0 -285.20633    0  626 -302.33127 -285.20633  5.66%     -  657s
     0     0 -285.57070    0  627 -302.33127 -285.57070  5.54%     -  675s
     0     0 -285.57070    0  628 -302.33127 -285.57070  5.54%     -  683s
     0     0 -286.70021    0  623 -302.33127 -286.70021  5.17%     -  702s
     0     0 -286.84596    0  554 -302.33127 -286.84596  5.12%     -  721s
     0     0 -286.84596    0  613 -302.33127 -286.84596  5.12%     -  731s
     0     0 -287.63540    0  624 -302.33127 -287.63540  4.86%     -  749s
     0     0 -288.12122    0  633 -302.33127 -288.12122  4.70%     -  771s
     0     0 -288.36413    0  640 -302.33127 -288.36413  4.62%     -  785s
     0     0 -288.36413    0  622 -302.33127 -288.36413  4.62%     -  794s
     0     0 -288.69378    0  639 -302.33127 -288.69378  4.51%     -  813s
     0     0 -289.21430    0  636 -302.33127 -289.21430  4.34%     -  832s
     0     0 -289.21430    0  636 -302.33127 -289.21430  4.34%     -  842s
     0     0 -289.21430    0  634 -302.33127 -289.21430  4.34%     -  857s
     0     0 -289.21430    0  635 -302.33127 -289.21430  4.34%     -  871s
     0     0 -289.21430    0  632 -302.33127 -289.21430  4.34%     -  887s
     0     0 -289.87015    0  645 -302.33127 -289.87015  4.12%     -  908s
     0     0 -290.01309    0  650 -302.33127 -290.01309  4.07%     -  918s
     0     0 -290.01309    0  653 -302.33127 -290.01309  4.07%     -  925s
     0     0 -290.58065    0  562 -302.33127 -290.58065  3.89%     - 1055s
     0     0 -290.85392    0  628 -302.33127 -290.85392  3.80%     - 1074s
     0     0 -291.00298    0  640 -302.33127 -291.00298  3.75%     - 1085s
     0     0 -291.18185    0  649 -302.33127 -291.18185  3.69%     - 1097s
     0     0 -291.18185    0  642 -302.33127 -291.18185  3.69%     - 1107s
     0     0 -291.19551    0  642 -302.33127 -291.19551  3.68%     - 1124s
     0     0 -291.19551    0  638 -302.33127 -291.19551  3.68%     - 1139s
     0     0 -291.19551    0  639 -302.33127 -291.19551  3.68%     - 1155s
     0     0 -291.19551    0  619 -302.33127 -291.19551  3.68%     - 1168s
     0     0 -291.19551    0  598 -302.33127 -291.19551  3.68%     - 1253s
     0     0 -291.19551    0  598 -302.33127 -291.19551  3.68%     - 1293s
     0     2 -291.19551    0  598 -302.33127 -291.19551  3.68%     - 1403s
     2     4 -291.81037    2  606 -302.33127 -291.19551  3.68%   981 1413s
     3     5 -297.23023    2  447 -302.33127 -291.19551  3.68%  2007 1444s
     4     6 -297.23023    3  472 -302.33127 -291.19551  3.68%  1513 1446s
     5     7 -297.95895    4  365 -302.33127 -291.19551  3.68%  1268 1451s
     7     9 -300.69165    6  354 -302.33127 -291.19551  3.68%   982 1459s
     8    10 -301.01958    7  350 -302.33127 -291.19551  3.68%   870 1462s
    12     8     cutoff    9      -302.33127 -291.19551  3.68%   594 1465s
    13     7     cutoff    1      -302.33127 -291.81207  3.48%  1226 1514s
    14     6     cutoff    3      -302.33127 -291.81270  3.48%  1261 1532s
    15     7 -292.22027    3  595 -302.33127 -292.22027  3.34%  1200 1537s
    16     8 -293.31335    4  624 -302.33127 -292.22027  3.34%  1238 1553s
    17     7     cutoff    4      -302.33127 -293.31335  2.98%  2329 1847s
    18     8 -294.06188    5  634 -302.33127 -293.31335  2.98%  2286 1860s
    19     7     cutoff    6      -302.33127 -293.31335  2.98%  2652 1963s
    20     8 -294.87260    6  630 -302.33127 -293.31335  2.98%  2648 1989s
    21     9 -300.14511    7  390 -302.33127 -293.31335  2.98%  2574 2002s
    22    10 -300.26265    8  362 -302.33127 -293.31335  2.98%  2477 2008s
    23    11 -300.87383    9  290 -302.33127 -293.31335  2.98%  2377 2012s
    24    10     cutoff    9      -302.33127 -293.31335  2.98%  2291 2015s
    25    11 -301.60255   10  307 -302.33127 -293.31335  2.98%  2230 2020s
    28     8     cutoff   10      -302.33127 -293.31335  2.98%  2004 2025s
    29     7     cutoff    5      -302.33127 -294.97782  2.43%  2385 2159s
    30     8 -295.49968    7  620 -302.33127 -295.49968  2.26%  2316 2166s
    31     9 -296.70971    8  620 -302.33127 -295.49968  2.26%  2277 2178s
    32    10 -297.33433    9  617 -302.33127 -295.49968  2.26%  2232 2186s
    33     9     cutoff    9      -302.33127 -295.49968  2.26%  2197 2195s
    34    10 -297.95895   10  614 -302.33127 -295.49968  2.26%  2145 2200s
    35     9     cutoff   10      -302.33127 -295.49968  2.26%  2113 2207s
    37    11 -298.75392   12  615 -302.33127 -295.49968  2.26%  2011 2213s
    38    10     cutoff   11      -302.33127 -295.49968  2.26%  1985 2222s
    39     9     cutoff   12      -302.33127 -295.49968  2.26%  1964 2231s
    40    10 -299.18867   13  614 -302.33127 -295.49968  2.26%  1923 2235s
    41     9     cutoff   13      -302.33127 -295.49968  2.26%  1898 2240s
    42    10 -299.96293   14  613 -302.33127 -295.49968  2.26%  1870 2247s
    43     9     cutoff   14      -302.33127 -295.49968  2.26%  1832 2250s
    44    10 -301.03324   15  625 -302.33127 -295.49968  2.26%  1825 2262s
    45    11 -301.78473   16  621 -302.33127 -295.49968  2.26%  1791 2268s
    46    12 -302.11266   17  620 -302.33127 -295.49968  2.26%  1759 2273s
    48    10     cutoff   16      -302.33127 -295.49968  2.26%  1696 2276s
    49     9     cutoff   15      -302.33127 -295.49968  2.26%  1672 2281s
    52     8 -300.14511    8  392 -302.33127 -297.23023  1.69%  1627 2307s
    53     9 -300.29086    9  365 -302.33127 -297.23023  1.69%  1605 2312s
    54    10 -301.23819   10  356 -302.33127 -297.23023  1.69%  1582 2317s
    56    10 -302.17512   11  353 -302.33127 -297.23023  1.69%  1534 2323s
    59     7     cutoff   10      -302.33127 -297.23023  1.69%  1466 2326s
    61     5     cutoff    3      -302.33127 -297.23023  1.69%  1440 2336s
    62     6 -298.68767    4  486 -302.33127 -297.95895  1.45%  1430 2346s
    63     7 -299.62460    5  434 -302.33127 -297.95895  1.45%  1413 2351s
    64     8 -299.93691    6  435 -302.33127 -297.95895  1.45%  1397 2356s
    66     8 -301.42037    7  426 -302.33127 -297.95895  1.45%  1367 2364s
    67     7     cutoff    8      -302.33127 -297.95895  1.45%  1349 2365s
    70     4     cutoff    5      -302.33127 -298.40448  1.30%  1315 2378s
    71     5 -301.23819    6  358 -302.33127 -298.68767  1.21%  1305 2385s
    73     3     cutoff    7      -302.33127 -298.68767  1.21%  1280 2390s
    75     1     cutoff    8      -302.33127 -300.69165  0.54%  1259 2397s

Cutting planes:
  Gomory: 1
  Zero half: 654

Explored 77 nodes (154150 simplex iterations) in 2398.88 seconds
Thread count was 1 (of 80 available processors)

Solution count 2: -302.331 -14481.3 

Optimal solution found (tolerance 1.00e-04)
Best objective -3.023312746604e+02, best bound -3.023312746604e+02, gap 0.0000%
